
******************************************************************************
This program contains Ipopt, a library for large-scale nonlinear optimization.
 Ipopt is released as open source code under the Eclipse Public License (EPL).
         For more information visit http://projects.coin-or.org/Ipopt

This version of Ipopt was compiled from source code available at
    https://github.com/IDAES/Ipopt as part of the Institute for the Design of
    Advanced Energy Systems Process Systems Engineering Framework (IDAES PSE
    Framework) Copyright (c) 2018-2019. See https://github.com/IDAES/idaes-pse.

This version of Ipopt was compiled using HSL, a collection of Fortran codes
    for large-scale scientific computation.  All technical papers, sales and
    publicity material resulting from use of the HSL codes within IPOPT must
    contain the following acknowledgement:
        HSL, a collection of Fortran codes for large-scale scientific
        computation. See http://www.hsl.rl.ac.uk.
******************************************************************************

This is Ipopt version 3.13.2, running with linear solver ma27.

Number of nonzeros in equality constraint Jacobian...:     1210
Number of nonzeros in inequality constraint Jacobian.:        0
Number of nonzeros in Lagrangian Hessian.............:     1376

Total number of variables............................:      480
                     variables with only lower bounds:      128
                variables with lower and upper bounds:      288
                     variables with only upper bounds:        0
Total number of equality constraints.................:      477
Total number of inequality constraints...............:        0
        inequality constraints with only lower bounds:        0
   inequality constraints with lower and upper bounds:        0
        inequality constraints with only upper bounds:        0

iter    objective    inf_pr   inf_du lg(mu)  ||d||  lg(rg) alpha_du alpha_pr  ls
   0  0.0000000e+00 2.67e+00 7.11e-15  -1.0 0.00e+00    -  0.00e+00 0.00e+00   0
   1  1.1473691e-01 4.84e-01 1.46e+03  -1.0 4.16e+04    -  5.85e-01 9.90e-01h  1
   2  1.1952544e-01 4.98e-02 6.03e+01  -1.0 3.80e+03    -  9.30e-01 9.90e-01h  1
   3  1.1960453e-01 1.01e-03 5.92e+00  -1.0 4.82e+01    -  9.90e-01 9.90e-01h  1
   4  1.2002713e-01 1.08e-05 1.61e+03  -1.0 4.46e+02    -  9.90e-01 9.90e-01h  1
   5  1.3036395e-01 2.14e-06 1.37e+04  -1.0 4.12e+03    -  9.90e-01 9.90e-01H  1
   6  1.2089893e-01 7.29e-05 7.48e+07  -3.8 5.78e+03    -  9.97e-01 5.00e-01f  2
   7  1.1761296e-01 3.02e-07 5.65e+04  -3.8 2.98e+03    -  1.00e+00 1.00e+00H  1
In iteration 7, 32 Slacks too small, adjusting variable bounds
   8  1.1761299e-01 6.92e-10 3.01e+08  -3.8 1.26e+01    -  1.00e+00 1.00e+00h  1
   9  1.1761299e-01 1.77e-09 4.77e-07  -3.8 2.05e-03    -  1.00e+00 1.00e+00h  1
iter    objective    inf_pr   inf_du lg(mu)  ||d||  lg(rg) alpha_du alpha_pr  ls
  10  1.1761295e-01 2.21e-09 1.57e+03  -9.0 9.72e+00    -  1.00e+00 1.00e+00H  1
  11  1.1761295e-01 4.64e-09 5.97e-10  -9.0 4.07e-04    -  1.00e+00 1.00e+00h  1

Number of Iterations....: 11

                                   (scaled)                 (unscaled)
Objective...............:   1.1761295273337935e-01    1.1761295273337935e-01
Dual infeasibility......:   5.9671396678855399e-10    5.9671396678855399e-10
Constraint violation....:   4.6434376343995609e-09    4.6434376343995609e-09
Complementarity.........:   9.0909091435133743e-10    9.0909091435133743e-10
Overall NLP error.......:   4.6434376343995609e-09    4.6434376343995609e-09


Number of objective function evaluations             = 21
Number of objective gradient evaluations             = 12
Number of equality constraint evaluations            = 21
Number of inequality constraint evaluations          = 0
Number of equality constraint Jacobian evaluations   = 12
Number of inequality constraint Jacobian evaluations = 0
Number of Lagrangian Hessian evaluations             = 11
Total CPU secs in IPOPT (w/o function evaluations)   =      0.042
Total CPU secs in NLP function evaluations           =      0.379

EXIT: Optimal Solution Found.
